NAME: ETSP
COMMENT: Generated by write_TSPLIB (R package TSP)
TYPE: TSP
DIMENSION: 1000
EDGE_WEIGHT_TYPE: EUC_2D
NODE_COORD_SECTION
1 4.780000e+00 1.904100e+01
2 4.780000e+00 3.712400e+01
3 4.780000e+00 5.520700e+01
4 4.780000e+00 7.328900e+01
5 4.780000e+00 9.137200e+01
6 4.780000e+00 1.094540e+02
7 4.780000e+00 1.275370e+02
8 4.780000e+00 1.456200e+02
9 4.780000e+00 1.637020e+02
10 4.780000e+00 1.817850e+02
11 4.780000e+00 1.998670e+02
12 4.780000e+00 2.179500e+02
13 4.780000e+00 2.360330e+02
14 4.780000e+00 2.541150e+02
15 4.780000e+00 2.721980e+02
16 4.780000e+00 2.902800e+02
17 4.780000e+00 3.083630e+02
18 4.780000e+00 3.264460e+02
19 4.780000e+00 3.445280e+02
20 4.780000e+00 3.626110e+02
21 1.000000e+01 1.000000e+01
22 1.000000e+01 2.808300e+01
23 1.000000e+01 4.616500e+01
24 1.000000e+01 6.424800e+01
25 1.000000e+01 8.233000e+01
26 1.000000e+01 1.004130e+02
27 1.000000e+01 1.184960e+02
28 1.000000e+01 1.365780e+02
29 1.000000e+01 1.546610e+02
30 1.000000e+01 1.727430e+02
31 1.000000e+01 1.908260e+02
32 1.000000e+01 2.089090e+02
33 1.000000e+01 2.269910e+02
34 1.000000e+01 2.450740e+02
35 1.000000e+01 2.631570e+02
36 1.000000e+01 2.812390e+02
37 1.000000e+01 2.993220e+02
38 1.000000e+01 3.174040e+02
39 1.000000e+01 3.354870e+02
40 1.000000e+01 3.535700e+02
41 1.522000e+01 1.904100e+01
42 1.522000e+01 3.712400e+01
43 1.522000e+01 5.520700e+01
44 1.522000e+01 7.328900e+01
45 1.522000e+01 9.137200e+01
46 1.522000e+01 1.094540e+02
47 1.522000e+01 1.275370e+02
48 1.522000e+01 1.456200e+02
49 1.522000e+01 1.637020e+02
50 1.522000e+01 1.817850e+02
51 1.522000e+01 1.998670e+02
52 1.522000e+01 2.179500e+02
53 1.522000e+01 2.360330e+02
54 1.522000e+01 2.541150e+02
55 1.522000e+01 2.721980e+02
56 1.522000e+01 2.902800e+02
57 1.522000e+01 3.083630e+02
58 1.522000e+01 3.264460e+02
59 1.522000e+01 3.445280e+02
60 1.522000e+01 3.626110e+02
61 2.044000e+01 1.000000e+01
62 2.044000e+01 2.808300e+01
63 2.044000e+01 4.616500e+01
64 2.044000e+01 6.424800e+01
65 2.044000e+01 8.233000e+01
66 2.044000e+01 1.004130e+02
67 2.044000e+01 1.184960e+02
68 2.044000e+01 1.365780e+02
69 2.044000e+01 1.546610e+02
70 2.044000e+01 1.727430e+02
71 2.044000e+01 1.908260e+02
72 2.044000e+01 2.089090e+02
73 2.044000e+01 2.269910e+02
74 2.044000e+01 2.450740e+02
75 2.044000e+01 2.631570e+02
76 2.044000e+01 2.812390e+02
77 2.044000e+01 2.993220e+02
78 2.044000e+01 3.174040e+02
79 2.044000e+01 3.354870e+02
80 2.044000e+01 3.535700e+02
81 2.566000e+01 1.904100e+01
82 2.566000e+01 3.712400e+01
83 2.566000e+01 5.520700e+01
84 2.566000e+01 7.328900e+01
85 2.566000e+01 9.137200e+01
86 2.566000e+01 1.094540e+02
87 2.566000e+01 1.275370e+02
88 2.566000e+01 1.456200e+02
89 2.566000e+01 1.637020e+02
90 2.566000e+01 1.817850e+02
91 2.566000e+01 1.998670e+02
92 2.566000e+01 2.179500e+02
93 2.566000e+01 2.360330e+02
94 2.566000e+01 2.541150e+02
95 2.566000e+01 2.721980e+02
96 2.566000e+01 2.902800e+02
97 2.566000e+01 3.083630e+02
98 2.566000e+01 3.264460e+02
99 2.566000e+01 3.445280e+02
100 2.566000e+01 3.626110e+02
101 3.088000e+01 1.000000e+01
102 3.088000e+01 2.808300e+01
103 3.088000e+01 4.616500e+01
104 3.088000e+01 6.424800e+01
105 3.088000e+01 8.233000e+01
106 3.088000e+01 1.004130e+02
107 3.088000e+01 1.184960e+02
108 3.088000e+01 1.365780e+02
109 3.088000e+01 1.546610e+02
110 3.088000e+01 1.727430e+02
111 3.088000e+01 1.908260e+02
112 3.088000e+01 2.089090e+02
113 3.088000e+01 2.269910e+02
114 3.088000e+01 2.450740e+02
115 3.088000e+01 2.631570e+02
116 3.088000e+01 2.812390e+02
117 3.088000e+01 2.993220e+02
118 3.088000e+01 3.174040e+02
119 3.088000e+01 3.354870e+02
120 3.088000e+01 3.535700e+02
121 3.610000e+01 1.904100e+01
122 3.610000e+01 3.712400e+01
123 3.610000e+01 5.520700e+01
124 3.610000e+01 7.328900e+01
125 3.610000e+01 9.137200e+01
126 3.610000e+01 1.094540e+02
127 3.610000e+01 1.275370e+02
128 3.610000e+01 1.456200e+02
129 3.610000e+01 1.637020e+02
130 3.610000e+01 1.817850e+02
131 3.610000e+01 1.998670e+02
132 3.610000e+01 2.179500e+02
133 3.610000e+01 2.360330e+02
134 3.610000e+01 2.541150e+02
135 3.610000e+01 2.721980e+02
136 3.610000e+01 2.902800e+02
137 3.610000e+01 3.083630e+02
138 3.610000e+01 3.264460e+02
139 3.610000e+01 3.445280e+02
140 3.610000e+01 3.626110e+02
141 4.132000e+01 1.000000e+01
142 4.132000e+01 2.808300e+01
143 4.132000e+01 4.616500e+01
144 4.132000e+01 6.424800e+01
145 4.132000e+01 8.233000e+01
146 4.132000e+01 1.004130e+02
147 4.132000e+01 1.184960e+02
148 4.132000e+01 1.365780e+02
149 4.132000e+01 1.546610e+02
150 4.132000e+01 1.727430e+02
151 4.132000e+01 1.908260e+02
152 4.132000e+01 2.089090e+02
153 4.132000e+01 2.269910e+02
154 4.132000e+01 2.450740e+02
155 4.132000e+01 2.631570e+02
156 4.132000e+01 2.812390e+02
157 4.132000e+01 2.993220e+02
158 4.132000e+01 3.174040e+02
159 4.132000e+01 3.354870e+02
160 4.132000e+01 3.535700e+02
161 4.654000e+01 1.904100e+01
162 4.654000e+01 3.712400e+01
163 4.654000e+01 5.520700e+01
164 4.654000e+01 7.328900e+01
165 4.654000e+01 9.137200e+01
166 4.654000e+01 1.094540e+02
167 4.654000e+01 1.275370e+02
168 4.654000e+01 1.456200e+02
169 4.654000e+01 1.637020e+02
170 4.654000e+01 1.817850e+02
171 4.654000e+01 1.998670e+02
172 4.654000e+01 2.179500e+02
173 4.654000e+01 2.360330e+02
174 4.654000e+01 2.541150e+02
175 4.654000e+01 2.721980e+02
176 4.654000e+01 2.902800e+02
177 4.654000e+01 3.083630e+02
178 4.654000e+01 3.264460e+02
179 4.654000e+01 3.445280e+02
180 4.654000e+01 3.626110e+02
181 5.176000e+01 1.000000e+01
182 5.176000e+01 2.808300e+01
183 5.176000e+01 4.616500e+01
184 5.176000e+01 6.424800e+01
185 5.176000e+01 8.233000e+01
186 5.176000e+01 1.004130e+02
187 5.176000e+01 1.184960e+02
188 5.176000e+01 1.365780e+02
189 5.176000e+01 1.546610e+02
190 5.176000e+01 1.727430e+02
191 5.176000e+01 1.908260e+02
192 5.176000e+01 2.089090e+02
193 5.176000e+01 2.269910e+02
194 5.176000e+01 2.450740e+02
195 5.176000e+01 2.631570e+02
196 5.176000e+01 2.812390e+02
197 5.176000e+01 2.993220e+02
198 5.176000e+01 3.174040e+02
199 5.176000e+01 3.354870e+02
200 5.176000e+01 3.535700e+02
201 5.698000e+01 1.904100e+01
202 5.698000e+01 3.712400e+01
203 5.698000e+01 5.520700e+01
204 5.698000e+01 7.328900e+01
205 5.698000e+01 9.137200e+01
206 5.698000e+01 1.094540e+02
207 5.698000e+01 1.275370e+02
208 5.698000e+01 1.456200e+02
209 5.698000e+01 1.637020e+02
210 5.698000e+01 1.817850e+02
211 5.698000e+01 1.998670e+02
212 5.698000e+01 2.179500e+02
213 5.698000e+01 2.360330e+02
214 5.698000e+01 2.541150e+02
215 5.698000e+01 2.721980e+02
216 5.698000e+01 2.902800e+02
217 5.698000e+01 3.083630e+02
218 5.698000e+01 3.264460e+02
219 5.698000e+01 3.445280e+02
220 5.698000e+01 3.626110e+02
221 6.220000e+01 1.000000e+01
222 6.220000e+01 2.808300e+01
223 6.220000e+01 4.616500e+01
224 6.220000e+01 6.424800e+01
225 6.220000e+01 8.233000e+01
226 6.220000e+01 1.004130e+02
227 6.220000e+01 1.184960e+02
228 6.220000e+01 1.365780e+02
229 6.220000e+01 1.546610e+02
230 6.220000e+01 1.727430e+02
231 6.220000e+01 1.908260e+02
232 6.220000e+01 2.089090e+02
233 6.220000e+01 2.269910e+02
234 6.220000e+01 2.450740e+02
235 6.220000e+01 2.631570e+02
236 6.220000e+01 2.812390e+02
237 6.220000e+01 2.993220e+02
238 6.220000e+01 3.174040e+02
239 6.220000e+01 3.354870e+02
240 6.220000e+01 3.535700e+02
241 6.742000e+01 1.904100e+01
242 6.742000e+01 3.712400e+01
243 6.742000e+01 5.520700e+01
244 6.742000e+01 7.328900e+01
245 6.742000e+01 9.137200e+01
246 6.742000e+01 1.094540e+02
247 6.742000e+01 1.275370e+02
248 6.742000e+01 1.456200e+02
249 6.742000e+01 1.637020e+02
250 6.742000e+01 1.817850e+02
251 6.742000e+01 1.998670e+02
252 6.742000e+01 2.179500e+02
253 6.742000e+01 2.360330e+02
254 6.742000e+01 2.541150e+02
255 6.742000e+01 2.721980e+02
256 6.742000e+01 2.902800e+02
257 6.742000e+01 3.083630e+02
258 6.742000e+01 3.264460e+02
259 6.742000e+01 3.445280e+02
260 6.742000e+01 3.626110e+02
261 7.264000e+01 1.000000e+01
262 7.264000e+01 2.808300e+01
263 7.264000e+01 4.616500e+01
264 7.264000e+01 6.424800e+01
265 7.264000e+01 8.233000e+01
266 7.264000e+01 1.004130e+02
267 7.264000e+01 1.184960e+02
268 7.264000e+01 1.365780e+02
269 7.264000e+01 1.546610e+02
270 7.264000e+01 1.727430e+02
271 7.264000e+01 1.908260e+02
272 7.264000e+01 2.089090e+02
273 7.264000e+01 2.269910e+02
274 7.264000e+01 2.450740e+02
275 7.264000e+01 2.631570e+02
276 7.264000e+01 2.812390e+02
277 7.264000e+01 2.993220e+02
278 7.264000e+01 3.174040e+02
279 7.264000e+01 3.354870e+02
280 7.264000e+01 3.535700e+02
281 7.786000e+01 1.904100e+01
282 7.786000e+01 3.712400e+01
283 7.786000e+01 5.520700e+01
284 7.786000e+01 7.328900e+01
285 7.786000e+01 9.137200e+01
286 7.786000e+01 1.094540e+02
287 7.786000e+01 1.275370e+02
288 7.786000e+01 1.456200e+02
289 7.786000e+01 1.637020e+02
290 7.786000e+01 1.817850e+02
291 7.786000e+01 1.998670e+02
292 7.786000e+01 2.179500e+02
293 7.786000e+01 2.360330e+02
294 7.786000e+01 2.541150e+02
295 7.786000e+01 2.721980e+02
296 7.786000e+01 2.902800e+02
297 7.786000e+01 3.083630e+02
298 7.786000e+01 3.264460e+02
299 7.786000e+01 3.445280e+02
300 7.786000e+01 3.626110e+02
301 8.308000e+01 1.000000e+01
302 8.308000e+01 2.808300e+01
303 8.308000e+01 4.616500e+01
304 8.308000e+01 6.424800e+01
305 8.308000e+01 8.233000e+01
306 8.308000e+01 1.004130e+02
307 8.308000e+01 1.184960e+02
308 8.308000e+01 1.365780e+02
309 8.308000e+01 1.546610e+02
310 8.308000e+01 1.727430e+02
311 8.308000e+01 1.908260e+02
312 8.308000e+01 2.089090e+02
313 8.308000e+01 2.269910e+02
314 8.308000e+01 2.450740e+02
315 8.308000e+01 2.631570e+02
316 8.308000e+01 2.812390e+02
317 8.308000e+01 2.993220e+02
318 8.308000e+01 3.174040e+02
319 8.308000e+01 3.354870e+02
320 8.308000e+01 3.535700e+02
321 8.830000e+01 1.904100e+01
322 8.830000e+01 3.712400e+01
323 8.830000e+01 5.520700e+01
324 8.830000e+01 7.328900e+01
325 8.830000e+01 9.137200e+01
326 8.830000e+01 1.094540e+02
327 8.830000e+01 1.275370e+02
328 8.830000e+01 1.456200e+02
329 8.830000e+01 1.637020e+02
330 8.830000e+01 1.817850e+02
331 8.830000e+01 1.998670e+02
332 8.830000e+01 2.179500e+02
333 8.830000e+01 2.360330e+02
334 8.830000e+01 2.541150e+02
335 8.830000e+01 2.721980e+02
336 8.830000e+01 2.902800e+02
337 8.830000e+01 3.083630e+02
338 8.830000e+01 3.264460e+02
339 8.830000e+01 3.445280e+02
340 8.830000e+01 3.626110e+02
341 9.352000e+01 1.000000e+01
342 9.352000e+01 2.808300e+01
343 9.352000e+01 4.616500e+01
344 9.352000e+01 6.424800e+01
345 9.352000e+01 8.233000e+01
346 9.352000e+01 1.004130e+02
347 9.352000e+01 1.184960e+02
348 9.352000e+01 1.365780e+02
349 9.352000e+01 1.546610e+02
350 9.352000e+01 1.727430e+02
351 9.352000e+01 1.908260e+02
352 9.352000e+01 2.089090e+02
353 9.352000e+01 2.269910e+02
354 9.352000e+01 2.450740e+02
355 9.352000e+01 2.631570e+02
356 9.352000e+01 2.812390e+02
357 9.352000e+01 2.993220e+02
358 9.352000e+01 3.174040e+02
359 9.352000e+01 3.354870e+02
360 9.352000e+01 3.535700e+02
361 9.874000e+01 1.904100e+01
362 9.874000e+01 3.712400e+01
363 9.874000e+01 5.520700e+01
364 9.874000e+01 7.328900e+01
365 9.874000e+01 9.137200e+01
366 9.874000e+01 1.094540e+02
367 9.874000e+01 1.275370e+02
368 9.874000e+01 1.456200e+02
369 9.874000e+01 1.637020e+02
370 9.874000e+01 1.817850e+02
371 9.874000e+01 1.998670e+02
372 9.874000e+01 2.179500e+02
373 9.874000e+01 2.360330e+02
374 9.874000e+01 2.541150e+02
375 9.874000e+01 2.721980e+02
376 9.874000e+01 2.902800e+02
377 9.874000e+01 3.083630e+02
378 9.874000e+01 3.264460e+02
379 9.874000e+01 3.445280e+02
380 9.874000e+01 3.626110e+02
381 1.039600e+02 1.000000e+01
382 1.039600e+02 2.808300e+01
383 1.039600e+02 4.616500e+01
384 1.039600e+02 6.424800e+01
385 1.039600e+02 8.233000e+01
386 1.039600e+02 1.004130e+02
387 1.039600e+02 1.184960e+02
388 1.039600e+02 1.365780e+02
389 1.039600e+02 1.546610e+02
390 1.039600e+02 1.727430e+02
391 1.039600e+02 1.908260e+02
392 1.039600e+02 2.089090e+02
393 1.039600e+02 2.269910e+02
394 1.039600e+02 2.450740e+02
395 1.039600e+02 2.631570e+02
396 1.039600e+02 2.812390e+02
397 1.039600e+02 2.993220e+02
398 1.039600e+02 3.174040e+02
399 1.039600e+02 3.354870e+02
400 1.039600e+02 3.535700e+02
401 1.091800e+02 1.904100e+01
402 1.091800e+02 3.712400e+01
403 1.091800e+02 5.520700e+01
404 1.091800e+02 7.328900e+01
405 1.091800e+02 9.137200e+01
406 1.091800e+02 1.094540e+02
407 1.091800e+02 1.275370e+02
408 1.091800e+02 1.456200e+02
409 1.091800e+02 1.637020e+02
410 1.091800e+02 1.817850e+02
411 1.091800e+02 1.998670e+02
412 1.091800e+02 2.179500e+02
413 1.091800e+02 2.360330e+02
414 1.091800e+02 2.541150e+02
415 1.091800e+02 2.721980e+02
416 1.091800e+02 2.902800e+02
417 1.091800e+02 3.083630e+02
418 1.091800e+02 3.264460e+02
419 1.091800e+02 3.445280e+02
420 1.091800e+02 3.626110e+02
421 1.144000e+02 1.000000e+01
422 1.144000e+02 2.808300e+01
423 1.144000e+02 4.616500e+01
424 1.144000e+02 6.424800e+01
425 1.144000e+02 8.233000e+01
426 1.144000e+02 1.004130e+02
427 1.144000e+02 1.184960e+02
428 1.144000e+02 1.365780e+02
429 1.144000e+02 1.546610e+02
430 1.144000e+02 1.727430e+02
431 1.144000e+02 1.908260e+02
432 1.144000e+02 2.089090e+02
433 1.144000e+02 2.269910e+02
434 1.144000e+02 2.450740e+02
435 1.144000e+02 2.631570e+02
436 1.144000e+02 2.812390e+02
437 1.144000e+02 2.993220e+02
438 1.144000e+02 3.174040e+02
439 1.144000e+02 3.354870e+02
440 1.144000e+02 3.535700e+02
441 1.196200e+02 1.904100e+01
442 1.196200e+02 3.712400e+01
443 1.196200e+02 5.520700e+01
444 1.196200e+02 7.328900e+01
445 1.196200e+02 9.137200e+01
446 1.196200e+02 1.094540e+02
447 1.196200e+02 1.275370e+02
448 1.196200e+02 1.456200e+02
449 1.196200e+02 1.637020e+02
450 1.196200e+02 1.817850e+02
451 1.196200e+02 1.998670e+02
452 1.196200e+02 2.179500e+02
453 1.196200e+02 2.360330e+02
454 1.196200e+02 2.541150e+02
455 1.196200e+02 2.721980e+02
456 1.196200e+02 2.902800e+02
457 1.196200e+02 3.083630e+02
458 1.196200e+02 3.264460e+02
459 1.196200e+02 3.445280e+02
460 1.196200e+02 3.626110e+02
461 1.248400e+02 1.000000e+01
462 1.248400e+02 2.808300e+01
463 1.248400e+02 4.616500e+01
464 1.248400e+02 6.424800e+01
465 1.248400e+02 8.233000e+01
466 1.248400e+02 1.004130e+02
467 1.248400e+02 1.184960e+02
468 1.248400e+02 1.365780e+02
469 1.248400e+02 1.546610e+02
470 1.248400e+02 1.727430e+02
471 1.248400e+02 1.908260e+02
472 1.248400e+02 2.089090e+02
473 1.248400e+02 2.269910e+02
474 1.248400e+02 2.450740e+02
475 1.248400e+02 2.631570e+02
476 1.248400e+02 2.812390e+02
477 1.248400e+02 2.993220e+02
478 1.248400e+02 3.174040e+02
479 1.248400e+02 3.354870e+02
480 1.248400e+02 3.535700e+02
481 1.300600e+02 1.904100e+01
482 1.300600e+02 3.712400e+01
483 1.300600e+02 5.520700e+01
484 1.300600e+02 7.328900e+01
485 1.300600e+02 9.137200e+01
486 1.300600e+02 1.094540e+02
487 1.300600e+02 1.275370e+02
488 1.300600e+02 1.456200e+02
489 1.300600e+02 1.637020e+02
490 1.300600e+02 1.817850e+02
491 1.300600e+02 1.998670e+02
492 1.300600e+02 2.179500e+02
493 1.300600e+02 2.360330e+02
494 1.300600e+02 2.541150e+02
495 1.300600e+02 2.721980e+02
496 1.300600e+02 2.902800e+02
497 1.300600e+02 3.083630e+02
498 1.300600e+02 3.264460e+02
499 1.300600e+02 3.445280e+02
500 1.300600e+02 3.626110e+02
501 1.352800e+02 1.000000e+01
502 1.352800e+02 2.808300e+01
503 1.352800e+02 4.616500e+01
504 1.352800e+02 6.424800e+01
505 1.352800e+02 8.233000e+01
506 1.352800e+02 1.004130e+02
507 1.352800e+02 1.184960e+02
508 1.352800e+02 1.365780e+02
509 1.352800e+02 1.546610e+02
510 1.352800e+02 1.727430e+02
511 1.352800e+02 1.908260e+02
512 1.352800e+02 2.089090e+02
513 1.352800e+02 2.269910e+02
514 1.352800e+02 2.450740e+02
515 1.352800e+02 2.631570e+02
516 1.352800e+02 2.812390e+02
517 1.352800e+02 2.993220e+02
518 1.352800e+02 3.174040e+02
519 1.352800e+02 3.354870e+02
520 1.352800e+02 3.535700e+02
521 1.405000e+02 1.904100e+01
522 1.405000e+02 3.712400e+01
523 1.405000e+02 5.520700e+01
524 1.405000e+02 7.328900e+01
525 1.405000e+02 9.137200e+01
526 1.405000e+02 1.094540e+02
527 1.405000e+02 1.275370e+02
528 1.405000e+02 1.456200e+02
529 1.405000e+02 1.637020e+02
530 1.405000e+02 1.817850e+02
531 1.405000e+02 1.998670e+02
532 1.405000e+02 2.179500e+02
533 1.405000e+02 2.360330e+02
534 1.405000e+02 2.541150e+02
535 1.405000e+02 2.721980e+02
536 1.405000e+02 2.902800e+02
537 1.405000e+02 3.083630e+02
538 1.405000e+02 3.264460e+02
539 1.405000e+02 3.445280e+02
540 1.405000e+02 3.626110e+02
541 1.457200e+02 1.000000e+01
542 1.457200e+02 2.808300e+01
543 1.457200e+02 4.616500e+01
544 1.457200e+02 6.424800e+01
545 1.457200e+02 8.233000e+01
546 1.457200e+02 1.004130e+02
547 1.457200e+02 1.184960e+02
548 1.457200e+02 1.365780e+02
549 1.457200e+02 1.546610e+02
550 1.457200e+02 1.727430e+02
551 1.457200e+02 1.908260e+02
552 1.457200e+02 2.089090e+02
553 1.457200e+02 2.269910e+02
554 1.457200e+02 2.450740e+02
555 1.457200e+02 2.631570e+02
556 1.457200e+02 2.812390e+02
557 1.457200e+02 2.993220e+02
558 1.457200e+02 3.174040e+02
559 1.457200e+02 3.354870e+02
560 1.457200e+02 3.535700e+02
561 1.509400e+02 1.904100e+01
562 1.509400e+02 3.712400e+01
563 1.509400e+02 5.520700e+01
564 1.509400e+02 7.328900e+01
565 1.509400e+02 9.137200e+01
566 1.509400e+02 1.094540e+02
567 1.509400e+02 1.275370e+02
568 1.509400e+02 1.456200e+02
569 1.509400e+02 1.637020e+02
570 1.509400e+02 1.817850e+02
571 1.509400e+02 1.998670e+02
572 1.509400e+02 2.179500e+02
573 1.509400e+02 2.360330e+02
574 1.509400e+02 2.541150e+02
575 1.509400e+02 2.721980e+02
576 1.509400e+02 2.902800e+02
577 1.509400e+02 3.083630e+02
578 1.509400e+02 3.264460e+02
579 1.509400e+02 3.445280e+02
580 1.509400e+02 3.626110e+02
581 1.561600e+02 1.000000e+01
582 1.561600e+02 2.808300e+01
583 1.561600e+02 4.616500e+01
584 1.561600e+02 6.424800e+01
585 1.561600e+02 8.233000e+01
586 1.561600e+02 1.004130e+02
587 1.561600e+02 1.184960e+02
588 1.561600e+02 1.365780e+02
589 1.561600e+02 1.546610e+02
590 1.561600e+02 1.727430e+02
591 1.561600e+02 1.908260e+02
592 1.561600e+02 2.089090e+02
593 1.561600e+02 2.269910e+02
594 1.561600e+02 2.450740e+02
595 1.561600e+02 2.631570e+02
596 1.561600e+02 2.812390e+02
597 1.561600e+02 2.993220e+02
598 1.561600e+02 3.174040e+02
599 1.561600e+02 3.354870e+02
600 1.561600e+02 3.535700e+02
601 1.613800e+02 1.904100e+01
602 1.613800e+02 3.712400e+01
603 1.613800e+02 5.520700e+01
604 1.613800e+02 7.328900e+01
605 1.613800e+02 9.137200e+01
606 1.613800e+02 1.094540e+02
607 1.613800e+02 1.275370e+02
608 1.613800e+02 1.456200e+02
609 1.613800e+02 1.637020e+02
610 1.613800e+02 1.817850e+02
611 1.613800e+02 1.998670e+02
612 1.613800e+02 2.179500e+02
613 1.613800e+02 2.360330e+02
614 1.613800e+02 2.541150e+02
615 1.613800e+02 2.721980e+02
616 1.613800e+02 2.902800e+02
617 1.613800e+02 3.083630e+02
618 1.613800e+02 3.264460e+02
619 1.613800e+02 3.445280e+02
620 1.613800e+02 3.626110e+02
621 1.666000e+02 1.000000e+01
622 1.666000e+02 2.808300e+01
623 1.666000e+02 4.616500e+01
624 1.666000e+02 6.424800e+01
625 1.666000e+02 8.233000e+01
626 1.666000e+02 1.004130e+02
627 1.666000e+02 1.184960e+02
628 1.666000e+02 1.365780e+02
629 1.666000e+02 1.546610e+02
630 1.666000e+02 1.727430e+02
631 1.666000e+02 1.908260e+02
632 1.666000e+02 2.089090e+02
633 1.666000e+02 2.269910e+02
634 1.666000e+02 2.450740e+02
635 1.666000e+02 2.631570e+02
636 1.666000e+02 2.812390e+02
637 1.666000e+02 2.993220e+02
638 1.666000e+02 3.174040e+02
639 1.666000e+02 3.354870e+02
640 1.666000e+02 3.535700e+02
641 1.718200e+02 1.904100e+01
642 1.718200e+02 3.712400e+01
643 1.718200e+02 5.520700e+01
644 1.718200e+02 7.328900e+01
645 1.718200e+02 9.137200e+01
646 1.718200e+02 1.094540e+02
647 1.718200e+02 1.275370e+02
648 1.718200e+02 1.456200e+02
649 1.718200e+02 1.637020e+02
650 1.718200e+02 1.817850e+02
651 1.718200e+02 1.998670e+02
652 1.718200e+02 2.179500e+02
653 1.718200e+02 2.360330e+02
654 1.718200e+02 2.541150e+02
655 1.718200e+02 2.721980e+02
656 1.718200e+02 2.902800e+02
657 1.718200e+02 3.083630e+02
658 1.718200e+02 3.264460e+02
659 1.718200e+02 3.445280e+02
660 1.718200e+02 3.626110e+02
661 1.770400e+02 1.000000e+01
662 1.770400e+02 2.808300e+01
663 1.770400e+02 4.616500e+01
664 1.770400e+02 6.424800e+01
665 1.770400e+02 8.233000e+01
666 1.770400e+02 1.004130e+02
667 1.770400e+02 1.184960e+02
668 1.770400e+02 1.365780e+02
669 1.770400e+02 1.546610e+02
670 1.770400e+02 1.727430e+02
671 1.770400e+02 1.908260e+02
672 1.770400e+02 2.089090e+02
673 1.770400e+02 2.269910e+02
674 1.770400e+02 2.450740e+02
675 1.770400e+02 2.631570e+02
676 1.770400e+02 2.812390e+02
677 1.770400e+02 2.993220e+02
678 1.770400e+02 3.174040e+02
679 1.770400e+02 3.354870e+02
680 1.770400e+02 3.535700e+02
681 1.822600e+02 1.904100e+01
682 1.822600e+02 3.712400e+01
683 1.822600e+02 5.520700e+01
684 1.822600e+02 7.328900e+01
685 1.822600e+02 9.137200e+01
686 1.822600e+02 1.094540e+02
687 1.822600e+02 1.275370e+02
688 1.822600e+02 1.456200e+02
689 1.822600e+02 1.637020e+02
690 1.822600e+02 1.817850e+02
691 1.822600e+02 1.998670e+02
692 1.822600e+02 2.179500e+02
693 1.822600e+02 2.360330e+02
694 1.822600e+02 2.541150e+02
695 1.822600e+02 2.721980e+02
696 1.822600e+02 2.902800e+02
697 1.822600e+02 3.083630e+02
698 1.822600e+02 3.264460e+02
699 1.822600e+02 3.445280e+02
700 1.822600e+02 3.626110e+02
701 1.874800e+02 1.000000e+01
702 1.874800e+02 2.808300e+01
703 1.874800e+02 4.616500e+01
704 1.874800e+02 6.424800e+01
705 1.874800e+02 8.233000e+01
706 1.874800e+02 1.004130e+02
707 1.874800e+02 1.184960e+02
708 1.874800e+02 1.365780e+02
709 1.874800e+02 1.546610e+02
710 1.874800e+02 1.727430e+02
711 1.874800e+02 1.908260e+02
712 1.874800e+02 2.089090e+02
713 1.874800e+02 2.269910e+02
714 1.874800e+02 2.450740e+02
715 1.874800e+02 2.631570e+02
716 1.874800e+02 2.812390e+02
717 1.874800e+02 2.993220e+02
718 1.874800e+02 3.174040e+02
719 1.874800e+02 3.354870e+02
720 1.874800e+02 3.535700e+02
721 1.927000e+02 1.904100e+01
722 1.927000e+02 3.712400e+01
723 1.927000e+02 5.520700e+01
724 1.927000e+02 7.328900e+01
725 1.927000e+02 9.137200e+01
726 1.927000e+02 1.094540e+02
727 1.927000e+02 1.275370e+02
728 1.927000e+02 1.456200e+02
729 1.927000e+02 1.637020e+02
730 1.927000e+02 1.817850e+02
731 1.927000e+02 1.998670e+02
732 1.927000e+02 2.179500e+02
733 1.927000e+02 2.360330e+02
734 1.927000e+02 2.541150e+02
735 1.927000e+02 2.721980e+02
736 1.927000e+02 2.902800e+02
737 1.927000e+02 3.083630e+02
738 1.927000e+02 3.264460e+02
739 1.927000e+02 3.445280e+02
740 1.927000e+02 3.626110e+02
741 1.979200e+02 1.000000e+01
742 1.979200e+02 2.808300e+01
743 1.979200e+02 4.616500e+01
744 1.979200e+02 6.424800e+01
745 1.979200e+02 8.233000e+01
746 1.979200e+02 1.004130e+02
747 1.979200e+02 1.184960e+02
748 1.979200e+02 1.365780e+02
749 1.979200e+02 1.546610e+02
750 1.979200e+02 1.727430e+02
751 1.979200e+02 1.908260e+02
752 1.979200e+02 2.089090e+02
753 1.979200e+02 2.269910e+02
754 1.979200e+02 2.450740e+02
755 1.979200e+02 2.631570e+02
756 1.979200e+02 2.812390e+02
757 1.979200e+02 2.993220e+02
758 1.979200e+02 3.174040e+02
759 1.979200e+02 3.354870e+02
760 1.979200e+02 3.535700e+02
761 2.031400e+02 1.904100e+01
762 2.031400e+02 3.712400e+01
763 2.031400e+02 5.520700e+01
764 2.031400e+02 7.328900e+01
765 2.031400e+02 9.137200e+01
766 2.031400e+02 1.094540e+02
767 2.031400e+02 1.275370e+02
768 2.031400e+02 1.456200e+02
769 2.031400e+02 1.637020e+02
770 2.031400e+02 1.817850e+02
771 2.031400e+02 1.998670e+02
772 2.031400e+02 2.179500e+02
773 2.031400e+02 2.360330e+02
774 2.031400e+02 2.541150e+02
775 2.031400e+02 2.721980e+02
776 2.031400e+02 2.902800e+02
777 2.031400e+02 3.083630e+02
778 2.031400e+02 3.264460e+02
779 2.031400e+02 3.445280e+02
780 2.031400e+02 3.626110e+02
781 2.083600e+02 1.000000e+01
782 2.083600e+02 2.808300e+01
783 2.083600e+02 4.616500e+01
784 2.083600e+02 6.424800e+01
785 2.083600e+02 8.233000e+01
786 2.083600e+02 1.004130e+02
787 2.083600e+02 1.184960e+02
788 2.083600e+02 1.365780e+02
789 2.083600e+02 1.546610e+02
790 2.083600e+02 1.727430e+02
791 2.083600e+02 1.908260e+02
792 2.083600e+02 2.089090e+02
793 2.083600e+02 2.269910e+02
794 2.083600e+02 2.450740e+02
795 2.083600e+02 2.631570e+02
796 2.083600e+02 2.812390e+02
797 2.083600e+02 2.993220e+02
798 2.083600e+02 3.174040e+02
799 2.083600e+02 3.354870e+02
800 2.083600e+02 3.535700e+02
801 2.135800e+02 1.904100e+01
802 2.135800e+02 3.712400e+01
803 2.135800e+02 5.520700e+01
804 2.135800e+02 7.328900e+01
805 2.135800e+02 9.137200e+01
806 2.135800e+02 1.094540e+02
807 2.135800e+02 1.275370e+02
808 2.135800e+02 1.456200e+02
809 2.135800e+02 1.637020e+02
810 2.135800e+02 1.817850e+02
811 2.135800e+02 1.998670e+02
812 2.135800e+02 2.179500e+02
813 2.135800e+02 2.360330e+02
814 2.135800e+02 2.541150e+02
815 2.135800e+02 2.721980e+02
816 2.135800e+02 2.902800e+02
817 2.135800e+02 3.083630e+02
818 2.135800e+02 3.264460e+02
819 2.135800e+02 3.445280e+02
820 2.135800e+02 3.626110e+02
821 2.188000e+02 1.000000e+01
822 2.188000e+02 2.808300e+01
823 2.188000e+02 4.616500e+01
824 2.188000e+02 6.424800e+01
825 2.188000e+02 8.233000e+01
826 2.188000e+02 1.004130e+02
827 2.188000e+02 1.184960e+02
828 2.188000e+02 1.365780e+02
829 2.188000e+02 1.546610e+02
830 2.188000e+02 1.727430e+02
831 2.188000e+02 1.908260e+02
832 2.188000e+02 2.089090e+02
833 2.188000e+02 2.269910e+02
834 2.188000e+02 2.450740e+02
835 2.188000e+02 2.631570e+02
836 2.188000e+02 2.812390e+02
837 2.188000e+02 2.993220e+02
838 2.188000e+02 3.174040e+02
839 2.188000e+02 3.354870e+02
840 2.188000e+02 3.535700e+02
841 2.240200e+02 1.904100e+01
842 2.240200e+02 3.712400e+01
843 2.240200e+02 5.520700e+01
844 2.240200e+02 7.328900e+01
845 2.240200e+02 9.137200e+01
846 2.240200e+02 1.094540e+02
847 2.240200e+02 1.275370e+02
848 2.240200e+02 1.456200e+02
849 2.240200e+02 1.637020e+02
850 2.240200e+02 1.817850e+02
851 2.240200e+02 1.998670e+02
852 2.240200e+02 2.179500e+02
853 2.240200e+02 2.360330e+02
854 2.240200e+02 2.541150e+02
855 2.240200e+02 2.721980e+02
856 2.240200e+02 2.902800e+02
857 2.240200e+02 3.083630e+02
858 2.240200e+02 3.264460e+02
859 2.240200e+02 3.445280e+02
860 2.240200e+02 3.626110e+02
861 2.292400e+02 1.000000e+01
862 2.292400e+02 2.808300e+01
863 2.292400e+02 4.616500e+01
864 2.292400e+02 6.424800e+01
865 2.292400e+02 8.233000e+01
866 2.292400e+02 1.004130e+02
867 2.292400e+02 1.184960e+02
868 2.292400e+02 1.365780e+02
869 2.292400e+02 1.546610e+02
870 2.292400e+02 1.727430e+02
871 2.292400e+02 1.908260e+02
872 2.292400e+02 2.089090e+02
873 2.292400e+02 2.269910e+02
874 2.292400e+02 2.450740e+02
875 2.292400e+02 2.631570e+02
876 2.292400e+02 2.812390e+02
877 2.292400e+02 2.993220e+02
878 2.292400e+02 3.174040e+02
879 2.292400e+02 3.354870e+02
880 2.292400e+02 3.535700e+02
881 2.344600e+02 1.904100e+01
882 2.344600e+02 3.712400e+01
883 2.344600e+02 5.520700e+01
884 2.344600e+02 7.328900e+01
885 2.344600e+02 9.137200e+01
886 2.344600e+02 1.094540e+02
887 2.344600e+02 1.275370e+02
888 2.344600e+02 1.456200e+02
889 2.344600e+02 1.637020e+02
890 2.344600e+02 1.817850e+02
891 2.344600e+02 1.998670e+02
892 2.344600e+02 2.179500e+02
893 2.344600e+02 2.360330e+02
894 2.344600e+02 2.541150e+02
895 2.344600e+02 2.721980e+02
896 2.344600e+02 2.902800e+02
897 2.344600e+02 3.083630e+02
898 2.344600e+02 3.264460e+02
899 2.344600e+02 3.445280e+02
900 2.344600e+02 3.626110e+02
901 2.396800e+02 1.000000e+01
902 2.396800e+02 2.808300e+01
903 2.396800e+02 4.616500e+01
904 2.396800e+02 6.424800e+01
905 2.396800e+02 8.233000e+01
906 2.396800e+02 1.004130e+02
907 2.396800e+02 1.184960e+02
908 2.396800e+02 1.365780e+02
909 2.396800e+02 1.546610e+02
910 2.396800e+02 1.727430e+02
911 2.396800e+02 1.908260e+02
912 2.396800e+02 2.089090e+02
913 2.396800e+02 2.269910e+02
914 2.396800e+02 2.450740e+02
915 2.396800e+02 2.631570e+02
916 2.396800e+02 2.812390e+02
917 2.396800e+02 2.993220e+02
918 2.396800e+02 3.174040e+02
919 2.396800e+02 3.354870e+02
920 2.396800e+02 3.535700e+02
921 2.449000e+02 1.904100e+01
922 2.449000e+02 3.712400e+01
923 2.449000e+02 5.520700e+01
924 2.449000e+02 7.328900e+01
925 2.449000e+02 9.137200e+01
926 2.449000e+02 1.094540e+02
927 2.449000e+02 1.275370e+02
928 2.449000e+02 1.456200e+02
929 2.449000e+02 1.637020e+02
930 2.449000e+02 1.817850e+02
931 2.449000e+02 1.998670e+02
932 2.449000e+02 2.179500e+02
933 2.449000e+02 2.360330e+02
934 2.449000e+02 2.541150e+02
935 2.449000e+02 2.721980e+02
936 2.449000e+02 2.902800e+02
937 2.449000e+02 3.083630e+02
938 2.449000e+02 3.264460e+02
939 2.449000e+02 3.445280e+02
940 2.449000e+02 3.626110e+02
941 2.501200e+02 1.000000e+01
942 2.501200e+02 2.808300e+01
943 2.501200e+02 4.616500e+01
944 2.501200e+02 6.424800e+01
945 2.501200e+02 8.233000e+01
946 2.501200e+02 1.004130e+02
947 2.501200e+02 1.184960e+02
948 2.501200e+02 1.365780e+02
949 2.501200e+02 1.546610e+02
950 2.501200e+02 1.727430e+02
951 2.501200e+02 1.908260e+02
952 2.501200e+02 2.089090e+02
953 2.501200e+02 2.269910e+02
954 2.501200e+02 2.450740e+02
955 2.501200e+02 2.631570e+02
956 2.501200e+02 2.812390e+02
957 2.501200e+02 2.993220e+02
958 2.501200e+02 3.174040e+02
959 2.501200e+02 3.354870e+02
960 2.501200e+02 3.535700e+02
961 2.553400e+02 1.904100e+01
962 2.553400e+02 3.712400e+01
963 2.553400e+02 5.520700e+01
964 2.553400e+02 7.328900e+01
965 2.553400e+02 9.137200e+01
966 2.553400e+02 1.094540e+02
967 2.553400e+02 1.275370e+02
968 2.553400e+02 1.456200e+02
969 2.553400e+02 1.637020e+02
970 2.553400e+02 1.817850e+02
971 2.553400e+02 1.998670e+02
972 2.553400e+02 2.179500e+02
973 2.553400e+02 2.360330e+02
974 2.553400e+02 2.541150e+02
975 2.553400e+02 2.721980e+02
976 2.553400e+02 2.902800e+02
977 2.553400e+02 3.083630e+02
978 2.553400e+02 3.264460e+02
979 2.553400e+02 3.445280e+02
980 2.553400e+02 3.626110e+02
981 2.605600e+02 1.000000e+01
982 2.605600e+02 2.808300e+01
983 2.605600e+02 4.616500e+01
984 2.605600e+02 6.424800e+01
985 2.605600e+02 8.233000e+01
986 2.605600e+02 1.004130e+02
987 2.605600e+02 1.184960e+02
988 2.605600e+02 1.365780e+02
989 2.605600e+02 1.546610e+02
990 2.605600e+02 1.727430e+02
991 2.605600e+02 1.908260e+02
992 2.605600e+02 2.089090e+02
993 2.605600e+02 2.269910e+02
994 2.605600e+02 2.450740e+02
995 2.605600e+02 2.631570e+02
996 2.605600e+02 2.812390e+02
997 2.605600e+02 2.993220e+02
998 2.605600e+02 3.174040e+02
999 2.605600e+02 3.354870e+02
1000 2.605600e+02 3.535700e+02
EOF
